analyze/results_flowersnark/final_miplib_symretope_if_extended_generating_set_cpx_v802__settings_final_nosym_norestarts__3__square23.mps.gz.out
FILENAME:   /home/mcs001/s132664/testsets/IP/miplib2017/square23.mps.gz
SETTINGS:   settings_final_nosym_norestarts
TIMELIMIT:  7200
OUTPUTNAME: final_miplib_symretope_if_extended_generating_set_cpx_v802__settings_final_nosym_norestarts__3__
BINNAME:    bin/sbcs.linux.x86_64.gnu.opt.cpx
BASENAME:   square23.mps.gz
SEED:       3
@01 /home/mcs001/s132664/testsets/IP/miplib2017/square23.mps.gz ===========
@02 square23.mps.gz
@03 1686663616
SCIP version 8.0.2 [precision: 8 byte] [memory: block] [mode: optimized] [LP solver: CPLEX 20.1.0.0] [GitHash: 5f0473c]
Copyright (C) 2002-2022 Konrad-Zuse-Zentrum fuer Informationstechnik Berlin (ZIB)

Symretope propagation methods - (c) Jasper van Doornmalen, Christopher Hojny.
[GitHash: 2fd0484]

reading parameter file <../settings/settings_final_nosym_norestarts.set> ...

Changed settings:
limits/time = 7200
limits/restarts = 0
misc/usesymmetry = 0
randomization/randomseedshift = 3
constraints/orbisack/sepafreq = -1
constraints/symresack/sepafreq = -1
propagating/symmetry/detectsubgroups = FALSE
propagating/symmetry/usesymretopes = FALSE
propagating/symmetry/relabelsymretopes = 0
propagating/symmetry/ofsymcomptiming = 0
constraints/symretope/sepafreq = -1
constraints/symretope/peek = FALSE


solving problem ...

original problem has 11660 variables (11638 bin, 22 int, 0 impl, 0 cont) and 7887 constraints
presolving:
(round 1, fast)       7315 del vars, 7315 del conss, 0 add conss, 7337 chg bounds, 0 chg sides, 0 chg coeffs, 0 upgd conss, 0 impls, 529 clqs
(round 2, exhaustive) 7315 del vars, 7328 del conss, 0 add conss, 7337 chg bounds, 13 chg sides, 0 chg coeffs, 0 upgd conss, 0 impls, 529 clqs
(round 3, exhaustive) 7315 del vars, 7328 del conss, 0 add conss, 7337 chg bounds, 13 chg sides, 0 chg coeffs, 529 upgd conss, 0 impls, 529 clqs
   (4.8s) probing: 1000/4323 (23.1%) - 0 fixings, 0 aggregations, 17834 implications, 0 bound changes
   (4.8s) probing: 1001/4323 (23.2%) - 0 fixings, 0 aggregations, 17854 implications, 0 bound changes
   (4.8s) probing aborted: 1000/1000 successive useless probings
presolving (4 rounds: 4 fast, 3 medium, 3 exhaustive):
 7315 deleted vars, 7328 deleted constraints, 0 added constraints, 7337 tightened bounds, 0 added holes, 13 changed sides, 0 changed coefficients
 17582 implications, 801 cliques
presolved problem has 4345 variables (4323 bin, 22 int, 0 impl, 0 cont) and 559 constraints
    529 constraints of type <setppc>
     30 constraints of type <linear>
transformed objective value is always integral (scale: 1)
Presolving Time: 4.85

 time | node  | left  |LP iter|LP it/n|mem/heur|mdpt |vars |cons |rows |cuts |sepa|confs|strbr|  dualbound   | primalbound  |  gap   | compl. 
p 5.2s|     1 |     0 |     0 |     - |  clique|   0 |4345 | 559 | 559 |   0 |  0 |   0 |   0 | 4.000000e+00 | 2.600000e+01 | 550.00%| unknown
  6.7s|     1 |     0 |   458 |     - |   436M |   0 |4345 | 585 | 559 |   0 |  0 |  41 |   0 | 8.333333e+00 | 2.600000e+01 | 212.00%| unknown
o 9.0s|     1 |     0 |  3517 |     - |feaspump|   0 |4345 | 572 | 559 |   0 |  2 |  42 |   0 | 8.333333e+00 | 1.400000e+01 |  68.00%| unknown
  9.3s|     1 |     0 |  4298 |     - |   438M |   0 |4345 | 574 | 559 |   0 |  2 |  44 |   0 | 8.333333e+00 | 1.400000e+01 |  68.00%| unknown
  9.5s|     1 |     0 |  4298 |     - |   438M |   0 |4345 | 578 | 559 |   0 |  2 |  48 |   0 | 8.333333e+00 | 1.400000e+01 |  68.00%| unknown
  9.5s|     1 |     0 |  4298 |     - |   438M |   0 |4345 | 578 | 559 |   0 |  4 |  48 |   0 | 8.333333e+00 | 1.400000e+01 |  68.00%| unknown
 11.6s|     1 |     2 |  4298 |     - |   438M |   0 |4345 | 578 | 559 |   0 |  6 |  48 |  22 | 8.676364e+00 | 1.400000e+01 |  61.36%| unknown
*34.2s|    51 |     3 | 15622 | 303.3 |    LP  |  11 |4345 | 597 | 559 |   0 |  1 | 235 | 305 | 8.819390e+00 | 1.300000e+01 |  47.40%|  30.51%
 37.3s|   100 |     8 | 26618 | 264.2 |   444M |  16 |4345 | 636 | 559 |   0 |  4 | 279 | 330 | 9.314199e+00 | 1.300000e+01 |  39.57%|  44.32%
 43.1s|   200 |     6 | 41158 | 204.5 |   448M |  24 |4345 | 863 | 559 |   0 |  2 | 530 | 426 | 1.023288e+01 | 1.300000e+01 |  27.04%|  71.92%

SCIP Status        : problem is solved [optimal solution found]
Solving Time (sec) : 43.22
Solving Nodes      : 206
Primal Bound       : +1.30000000000000e+01 (3 solutions)
Dual Bound         : +1.30000000000000e+01
Gap                : 0.00 %
SCIP Status        : problem is solved [optimal solution found]
Total Time         :      43.73
  solving          :      43.22
  presolving       :       4.85 (included in solving)
  reading          :       0.51
  copying          :       0.13 (6 #copies) (minimal 0.02, maximal 0.02, average 0.02)
Original Problem   :
  Problem name     : square23
  Variables        : 11660 (11638 binary, 22 integer, 0 implicit integer, 0 continuous)
  Constraints      : 7887 initial, 7887 maximal
  Objective        : minimize, 11638 non-zeros (abs.min = 1, abs.max = 1)
Presolved Problem  :
  Problem name     : t_square23
  Variables        : 4345 (4323 binary, 22 integer, 0 implicit integer, 0 continuous)
  Constraints      : 559 initial, 863 maximal
  Objective        : minimize, 4235 non-zeros (abs.min = 1, abs.max = 1)
  Nonzeros         : 269382 constraint, 133663 clique table
Presolvers         :   ExecTime  SetupTime  Calls  FixedVars   AggrVars   ChgTypes  ChgBounds   AddHoles    DelCons    AddCons   ChgSides   ChgCoefs
  boundshift       :       0.00       0.00      0          0          0          0          0          0          0          0          0          0
  convertinttobin  :       0.00       0.00      0          0          0          0          0          0          0          0          0          0
  domcol           :       0.04       0.00      1          0          0          0          0          0          0          0          0          0
  dualagg          :       0.00       0.00      0          0          0          0          0          0          0          0          0          0
  dualcomp         :       0.00       0.00      0          0          0          0          0          0          0          0          0          0
  dualinfer        :       0.00       0.00      0          0          0          0          0          0          0          0          0          0
  dualsparsify     :       0.24       0.00      1          0          0          0          0          0          0          0          0          0
  gateextraction   :       0.00       0.00      0          0          0          0          0          0          0          0          0          0
  implics          :       0.00       0.00      3          0          0          0          0          0          0          0          0          0
  inttobinary      :       0.00       0.00      4          0          0          0          0          0          0          0          0          0
  qpkktref         :       0.00       0.00      0          0          0          0          0          0          0          0          0          0
  redvub           :       0.00       0.00      0          0          0          0          0          0          0          0          0          0
  sparsify         :       0.28       0.00      1          0          0          0          0          0          0          0          0          0
  stuffing         :       0.00       0.00      0          0          0          0          0          0          0          0          0          0
  trivial          :       0.00       0.00      4          0          0          0          0          0          0          0          0          0
  tworowbnd        :       0.00       0.00      0          0          0          0          0          0          0          0          0          0
  dualfix          :       0.00       0.00      4          0          0          0          0          0          0          0          0          0
  genvbounds       :       0.00       0.00      0          0          0          0          0          0          0          0          0          0
  probing          :       3.10       0.00      1          0          0          0          0          0          0          0          0          0
  pseudoobj        :       0.00       0.00      0          0          0          0          0          0          0          0          0          0
  symmetry         :       0.00       0.00      0          0          0          0          0          0          0          0          0          0
  vbounds          :       0.01       0.00      1          0          0          0          0          0          0          0          0          0
  knapsack         :       0.00       0.00      0          0          0          0          0          0          0          0          0          0
  setppc           :       0.09       0.00      3          0          0          0          0          0          0          0          0          0
  linear           :       0.99       0.14      7       7315          0          0       7337          0       7328          0         13          0
  logicor          :       0.00       0.00      0          0          0          0          0          0          0          0          0          0
  bounddisjunction :       0.00       0.00      0          0          0          0          0          0          0          0          0          0
  benders          :       0.00       0.00      0          0          0          0          0          0          0          0          0          0
  components       :       0.04       0.00      1          0          0          0          0          0          0          0          0          0
  root node        :          -          -      -        823          -          -        861          -          -          -          -          -
Constraints        :     Number  MaxNumber  #Separate #Propagate    #EnfoLP    #EnfoRelax  #EnfoPS    #Check   #ResProp    Cutoffs    DomReds       Cuts    Applied      Conss   Children
  benderslp        :          0          0          0          0        156          0          0         17          0          0          0          0          0          0          0
  integral         :          0          0          0          0        156          0          0         17          0          0        222          0          0        458        206
  knapsack         :          0+         2          0       1417          0          0          0          0         56          0         10          0          0          0          0
  setppc           :        529+       551          3       6523          1          0          0         11      25855         50      27845          0          0          0          0
  linear           :         30+        31          3       6473          1          0          0          2       2710          1       3063          0          0          0          0
  logicor          :          0+        37          3        575          0          0          0          0         14          1          2          0          0          0          0
  bounddisjunction :          0+       282          0        734          0          0          0          0        393          5         14          0          0          0          0
  benders          :          0          0          0          0          1          0          0          3          0          0          0          0          0          0          0
  countsols        :          0          0          0          0          1          0          0          3          0          0          0          0          0          0          0
  components       :          0          0          0          0          0          0          0          0          0          0          0          0          0          0          0
Constraint Timings :  TotalTime  SetupTime   Separate  Propagate     EnfoLP     EnfoPS     EnfoRelax   Check    ResProp    SB-Prop
  benderslp        :       0.00       0.00       0.00       0.00       0.00       0.00       0.00       0.00       0.00       0.00
  integral         :      26.23       0.00       0.00       0.00      26.23       0.00       0.00       0.00       0.00       0.00
  knapsack         :       0.00       0.00       0.00       0.00       0.00       0.00       0.00       0.00       0.00       0.00
  setppc           :       0.79       0.00       0.02       0.19       0.00       0.00       0.00       0.00       0.06       0.53
  linear           :       0.55       0.14       0.00       0.34       0.00       0.00       0.00       0.00       0.01       0.06
  logicor          :       0.00       0.00       0.00       0.00       0.00       0.00       0.00       0.00       0.00       0.00
  bounddisjunction :       0.01       0.00       0.00       0.00       0.00       0.00       0.00       0.00       0.00       0.01
  benders          :       0.00       0.00       0.00       0.00       0.00       0.00       0.00       0.00       0.00       0.00
  countsols        :       0.00       0.00       0.00       0.00       0.00       0.00       0.00       0.00       0.00       0.00
  components       :       0.00       0.00       0.00       0.00       0.00       0.00       0.00       0.00       0.00       0.00
Propagators        : #Propagate   #ResProp    Cutoffs    DomReds
  dualfix          :          6          0          0          0
  genvbounds       :          0          0          0          0
  nlobbt           :          0          0          0          0
  obbt             :          0          0          0          0
  probing          :          0          0          0          0
  pseudoobj        :        958          0          0          0
  redcost          :        582          0          0      37847
  rootredcost      :          2          0          0        294
  symmetry         :          0          0          0          0
  vbounds          :       1893          0          0          0
Propagator Timings :  TotalTime  SetupTime   Presolve  Propagate    ResProp    SB-Prop
  dualfix          :       0.00       0.00       0.00       0.00       0.00       0.00
  genvbounds       :       0.00       0.00       0.00       0.00       0.00       0.00
  nlobbt           :       0.00       0.00       0.00       0.00       0.00       0.00
  obbt             :       0.00       0.00       0.00       0.00       0.00       0.00
  probing          :       3.10       0.00       3.10       0.00       0.00       0.00
  pseudoobj        :       0.01       0.00       0.00       0.01       0.00       0.00
  redcost          :       0.15       0.00       0.00       0.15       0.00       0.00
  rootredcost      :       0.01       0.00       0.00       0.01       0.00       0.00
  symmetry         :       0.00       0.00       0.00       0.00       0.00       0.00
  vbounds          :       0.02       0.00       0.01       0.01       0.00       0.00
Conflict Analysis  :       Time      Calls    Success    DomReds  Conflicts   Literals    Reconvs ReconvLits   Dualrays   Nonzeros   LP Iters   (pool size: [10000,10000])
  propagation      :       0.04         57         53          -        227      383.0          0        0.0          -          -          -
  infeasible LP    :       0.07         13          3          -         13      165.6          0        0.0          3      181.7          0
  bound exceed. LP :       4.05        184        190          -        769      192.1         22      151.8         11        1.0       2300
  strong branching :       0.00          0          0          -          0        0.0          0        0.0          -          -          0
  pseudo solution  :       0.00          0          0          -          0        0.0          0        0.0          -          -          -
  applied globally :       2.29          -          -         11        491      120.5          -          -         14          -          -
  applied locally  :          -          -          -          0         25      779.0          -          -          0          -          -
Separators         :   ExecTime  SetupTime      Calls  RootCalls    Cutoffs    DomReds  FoundCuts ViaPoolAdd  DirectAdd    Applied ViaPoolApp  DirectApp      Conss
  cut pool         :       0.00          -          0          0          -          -          0          0          -          -          -          -          -    (maximal pool size:          0)
  aggregation      :       0.10       0.00         18          3          0          0          0          0          0          0          0          0          0
  > cmir           :          -          -          -          -          -          -          -          0          0          0          0          0          -
  > flowcover      :          -          -          -          -          -          -          -          0          0          0          0          0          -
  > knapsackcover  :          -          -          -          -          -          -          -          0          0          0          0          0          -
  cgmip            :       0.00       0.00          0          0          0          0          0          0          0          0          0          0          0
  clique           :       0.54       0.00          3          3          0          0          0          0          0          0          0          0          0
  closecuts        :       0.00       0.00          0          0          0          0          0          0          0          0          0          0          0
  convexproj       :       0.00       0.00          0          0          0          0          0          0          0          0          0          0          0
  disjunctive      :       0.00       0.00          0          0          0          0          0          0          0          0          0          0          0
  eccuts           :       0.00       0.00          0          0          0          0          0          0          0          0          0          0          0
  gauge            :       0.00       0.00          0          0          0          0          0          0          0          0          0          0          0
  gomory           :       0.28       0.00         18          3          0          0          0          0          0          0          0          0          0
  > gomorymi       :          -          -          -          -          -          -          -          0          0          0          0          0          -
  > strongcg       :          -          -          -          -          -          -          -          0          0          0          0          0          -
  impliedbounds    :       0.01       0.00         18          3          0          0          0          0          0          0          0          0          0
  interminor       :       0.00       0.00          0          0          0          0          0          0          0          0          0          0          0
  intobj           :       0.00       0.00          0          0          0          0          0          0          0          0          0          0          0
  mcf              :       0.00       0.00          1          1          0          0          0          0          0          0          0          0          0
  minor            :       0.00       0.00          0          0          0          0          0          0          0          0          0          0          0
  mixing           :       0.00       0.00         18          3          0          0          0          0          0          0          0          0          0
  oddcycle         :       0.00       0.00          0          0          0          0          0          0          0          0          0          0          0
  rapidlearning    :       0.00       0.00          0          0          0          0          0          0          0          0          0          0          0
  rlt              :       0.00       0.00          3          3          0          0          0          0          0          0          0          0          0
  zerohalf         :       0.03       0.00         18          3          0          0          0          0          0          0          0          0          0
Cutselectors       :   ExecTime  SetupTime      Calls  RootCalls   Selected     Forced   Filtered  RootSelec   RootForc   RootFilt 
  hybrid           :       0.00       0.00          0          0          0          0          0          0          0          0
Pricers            :   ExecTime  SetupTime      Calls       Vars
  problem variables:       0.00          -          0          0
Branching Rules    :   ExecTime  SetupTime   BranchLP  BranchExt   BranchPS    Cutoffs    DomReds       Cuts      Conss   Children
  allfullstrong    :       0.00       0.00          0          0          0          0          0          0          0          0
  cloud            :       0.00       0.00          0          0          0          0          0          0          0          0
  distribution     :       0.00       0.00          0          0          0          0          0          0          0          0
  fullstrong       :       0.00       0.00          0          0          0          0          0          0          0          0
  inference        :       0.00       0.00          0          0          0          0          0          0          0          0
  leastinf         :       0.00       0.00          0          0          0          0          0          0          0          0
  lookahead        :       0.00       0.00          0          0          0          0          0          0          0          0
  mostinf          :       0.00       0.00          0          0          0          0          0          0          0          0
  multaggr         :       0.00       0.00          0          0          0          0          0          0          0          0
  nodereopt        :       0.00       0.00          0          0          0          0          0          0          0          0
  pscost           :       0.00       0.00          0          0          0          0          0          0          0          0
  random           :       0.00       0.00          0          0          0          0          0          0          0          0
  relpscost        :      26.23       0.00        155          0          0          0        222          0        461        206
  vanillafullstrong:       0.00       0.00          0          0          0          0          0          0          0          0
Primal Heuristics  :   ExecTime  SetupTime      Calls      Found       Best
  LP solutions     :       0.00          -          -          1          1
  relax solutions  :       0.00          -          -          0          0
  pseudo solutions :       0.00          -          -          0          0
  strong branching :       0.00          -          -          0          0
  actconsdiving    :       0.00       0.00          0          0          0
  adaptivediving   :       0.00       0.00          0          0          0
  alns             :       0.26       0.00          5          0          0
  bound            :       0.00       0.00          0          0          0
  clique           :       0.09       0.00          1          1          1
  coefdiving       :       0.00       0.00          0          0          0
  completesol      :       0.00       0.00          0          0          0
  conflictdiving   :       0.19       0.00          1          0          0
  crossover        :       0.00       0.00          0          0          0
  dins             :       0.00       0.00          0          0          0
  distributiondivin:       0.03       0.00          0          0          0
  dps              :       0.00       0.00          0          0          0
  dualval          :       0.00       0.00          0          0          0
  farkasdiving     :       0.00       0.00          0          0          0
  feaspump         :       1.75       0.00          1          1          1
  fixandinfer      :       0.00       0.00          0          0          0
  fracdiving       :       0.00       0.00          0          0          0
  gins             :       0.01       0.00          0          0          0
  guideddiving     :       0.00       0.00          0          0          0
  indicator        :       0.00       0.00          0          0          0
  intdiving        :       0.00       0.00          0          0          0
  intshifting      :       0.00       0.00          0          0          0
  linesearchdiving :       0.00       0.00          0          0          0
  localbranching   :       0.00       0.00          0          0          0
  locks            :       0.05       0.00          1          0          0
  lpface           :       0.00       0.00          0          0          0
  mpec             :       0.00       0.00          0          0          0
  multistart       :       0.00       0.00          0          0          0
  mutation         :       0.00       0.00          0          0          0
  nlpdiving        :       0.00       0.00          0          0          0
  objpscostdiving  :       0.00       0.00          0          0          0
  octane           :       0.00       0.00          0          0          0
  ofins            :       0.00       0.00          0          0          0
  oneopt           :       0.01       0.00          3          0          0
  padm             :       0.00       0.00          0          0          0
  proximity        :       0.00       0.00          0          0          0
  pscostdiving     :       0.00       0.00          0          0          0
  randrounding     :       0.13       0.00          7          0          0
  rens             :       0.05       0.00          1          0          0
  reoptsols        :       0.00       0.00          0          0          0
  repair           :       0.00       0.00          0          0          0
  rins             :       0.00       0.00          0          0          0
  rootsoldiving    :       0.00       0.00          0          0          0
  rounding         :       0.12       0.00        133          0          0
  shiftandpropagate:       0.00       0.00          0          0          0
  shifting         :       0.10       0.00         15          0          0
  simplerounding   :       0.00       0.00          0          0          0
  subnlp           :       0.00       0.00          0          0          0
  trivial          :       0.02       0.00          2          0          0
  trivialnegation  :       0.00       0.00          0          0          0
  trustregion      :       0.00       0.00          0          0          0
  trysol           :       0.00       0.00          0          0          0
  twoopt           :       0.00       0.00          0          0          0
  undercover       :       0.00       0.00          0          0          0
  vbounds          :       1.29       0.00          1          0          0
  veclendiving     :       0.00       0.00          0          0          0
  zeroobj          :       0.00       0.00          0          0          0
  zirounding       :       0.00       0.00        103          0          0
  other solutions  :          -          -          -          0          -
LP                 :       Time      Calls Iterations  Iter/call   Iter/sec  Time-0-It Calls-0-It    ItLimit
  primal LP        :       0.00          0          0       0.00          -       0.00          0
  dual LP          :       5.71        518      38239     154.81    6699.76       0.31        271
  lex dual LP      :       0.00          0          0       0.00          -
  barrier LP       :       0.00          0          0       0.00          -       0.00          0
  resolve instable :       0.00          0          0       0.00          -
  diving/probing LP:       2.06         10       3840     384.00    1863.30
  strong branching :      20.83        426     128008     300.49    6146.17          -          -         93
    (at root node) :          -         22       9346     424.82          -
  conflict analysis:       1.22        230       2300      10.00    1883.04
B&B Tree           :
  number of runs   :          1
  nodes            :        206 (103 internal, 103 leaves)
  feasible leaves  :          1
  infeas. leaves   :         13
  objective leaves :         89
  nodes (total)    :        206 (103 internal, 103 leaves)
  nodes left       :          0
  max depth        :         25
  max depth (total):         25
  backtracks       :         22 (10.7%)
  early backtracks :          0 (0.0%)
  nodes exc. ref.  :          0 (0.0%)
  delayed cutoffs  :          0
  repropagations   :         37 (22 domain reductions, 0 cutoffs)
  avg switch length:       3.19
  switching time   :       0.15
Root Node          :
  First LP value   : +8.33333333333334e+00
  First LP Iters   :        458 (2954.06 Iter/sec)
  First LP Time    :       0.16
  Final Dual Bound : +8.67636363636364e+00
  Final Root Iters :        458
  Root LP Estimate : +1.14190462582990e+01
Solution           :
  Solutions found  :          3 (3 improvements)
  First Solution   : +2.60000000000000e+01   (in run 1, after 1 nodes, 5.17 seconds, depth 6, found by <clique>)
  Gap First Sol.   :     550.00 %
  Gap Last Sol.    :      47.40 %
  Primal Bound     : +1.30000000000000e+01   (in run 1, after 51 nodes, 34.20 seconds, depth 9, found by <relaxation>)
  Dual Bound       : +1.30000000000000e+01
  Gap              :       0.00 %
Integrals          :      Total       Avg%
  primal-dual      :    2003.07      46.35
  primal-ref       :          -          - (not evaluated)
  dual-ref         :          -          - (not evaluated)
written solution information to file <results/final_miplib_symretope_if_extended_generating_set_cpx_v802__settings_final_nosym_norestarts__3__square23.mps.gz.sol>
@04 1686663660
